nNurses = 179;
nHours = 36;
minHours = 5;
maxHours = 11;
maxConsec = 6;
maxPresence = 31;
demand = [6, 7, 12, 7, 11, 10, 14, 18, 15, 15, 18, 17, 21, 18, 19, 21, 22, 17, 18, 15, 10, 9, 6, 6, 7, 9, 6, 9, 13, 13, 14, 10, 11, 13, 14, 19];
